9
1 2 97
1 3 68
1 4 83
1 5 99
1 6 85
1 7 50
1 8 96
1 9 86
2 3 90
2 4 92
2 5 98
2 6 74
2 7 83
2 8 68
2 9 94
3 4 71
3 5 82
3 6 60
3 7 73
3 8 64
3 9 92
4 5 80
4 6 81
4 7 61
4 8 88
4 9 84
5 6 87
5 7 71
5 8 59
5 9 50
6 7 67
6 8 84
6 9 66
7 8 75
7 9 83
8 9 73
